NAME : tsp40_9.211.tour
COMMENT : Length = 211
COMMENT : Found by LKH [Keld Helsgaun]
TYPE : TOUR
DIMENSION : 40
TOUR_SECTION
1
3
38
10
11
28
40
15
6
14
24
32
30
37
31
23
21
12
25
29
4
16
2
7
8
34
36
35
33
18
19
26
39
27
20
17
13
5
22
9
-1
EOF
